p tw 614 1187
1 298
1 299
1 509
1 510
1 612
1 613
2 250
2 251
3 326
3 327
3 439
3 440
3 516
3 517
4 227
4 228
4 451
4 452
4 466
4 467
4 528
4 529
5 554
5 555
6 313
6 314
6 467
6 468
6 539
6 540
7 608
7 609
8 423
8 424
9 219
9 220
9 410
9 411
9 580
9 581
10 138
10 220
10 398
10 399
10 596
10 597
11 336
11 337
12 228
12 229
12 468
12 469
12 540
12 541
13 229
13 230
14 360
14 361
15 277
15 278
15 479
15 480
15 592
15 593
16 243
16 244
16 448
16 449
16 525
16 526
17 204
17 430
18 320
18 321
19 328
19 329
20 249
20 250
20 565
20 566
21 225
21 226
22 378
22 379
23 247
23 248
23 564
23 565
24 288
24 289
24 497
24 498
25 248
25 249
26 272
26 273
27 381
27 382
27 402
27 403
28 294
28 295
28 422
28 423
29 353
29 354
30 389
30 390
30 605
30 606
31 231
31 232
32 291
32 292
32 438
32 439
32 501
32 502
32 515
32 516
33 388
33 389
34 345
34 346
35 232
35 233
36 226
36 227
36 465
36 466
36 538
36 539
37 361
37 362
38 299
38 300
39 324
39 325
40 310
40 311
40 405
40 406
41 327
41 328
41 437
41 438
41 514
41 515
42 222
42 223
42 531
42 532
43 333
43 334
43 485
43 486
43 556
43 557
44 334
44 335
44 403
44 404
45 295
45 296
45 425
45 426
46 311
46 312
47 543
47 544
48 393
48 394
49 276
49 277
50 59
50 322
50 323
50 452
50 529
51 352
51 353
52 337
52 338
52 489
52 490
53 347
53 348
54 597
54 598
55 369
55 370
55 421
55 422
55 587
55 588
56 429
56 430
57 261
57 262
58 185
58 340
58 341
58 433
58 494
58 495
59 339
59 340
59 452
59 529
60 233
60 234
61 348
61 349
62 314
62 315
63 362
63 363
63 447
63 448
63 464
63 465
63 524
63 525
64 392
64 393
64 420
64 421
65 386
65 387
66 283
66 284
66 488
66 489
66 600
66 601
67 366
67 367
68 319
68 320
68 446
68 447
68 522
68 523
68 546
68 547
69 269
69 270
69 471
69 472
69 581
69 582
70 364
70 365
71 246
71 247
71 440
71 441
71 502
71 503
71 517
71 518
71 563
71 564
72 305
72 306
73 408
73 409
74 359
74 360
74 573
74 574
75 356
75 357
75 568
75 569
76 94
76 300
76 301
76 511
76 613
76 614
77 350
77 351
77 566
77 567
78 346
78 347
78 503
78 504
78 562
78 563
79 427
79 428
80 382
80 383
80 407
80 408
81 365
81 366
81 583
81 584
82 256
82 257
83 390
83 391
83 504
83 505
84 307
84 308
84 441
84 442
84 457
84 458
84 518
84 519
84 535
84 536
85 236
85 237
85 450
85 451
85 476
85 477
85 527
85 528
86 275
86 276
87 318
87 319
88 308
88 309
88 459
88 460
88 537
88 538
89 558
89 559
90 379
90 380
91 281
91 282
92 262
92 263
92 443
92 444
92 520
92 521
93 607
93 608
94 160
94 302
94 303
94 511
94 614
95 271
95 272
96 254
96 255
97 301
97 302
98 380
98 381
99 343
99 344
99 496
99 497
100 335
100 336
101 418
101 419
102 234
102 235
102 473
102 474
102 545
102 546
103 323
103 324
104 406
104 407
105 358
105 359
105 572
105 573
106 264
106 265
106 577
106 578
107 372
107 373
107 474
107 475
107 588
107 589
108 237
108 238
108 550
108 551
109 265
109 266
109 462
109 463
110 221
110 222
110 453
110 454
110 530
110 531
111 544
111 545
112 383
112 384
113 342
113 343
114 268
114 269
114 579
114 580
115 253
115 254
115 507
115 508
115 569
115 570
116 395
116 396
117 263
117 264
117 461
117 462
117 576
117 577
118 549
118 550
119 399
119 400
120 397
120 398
121 338
121 339
121 491
121 492
121 559
121 560
122 586
122 587
123 285
123 286
124 309
124 310
125 224
125 225
125 456
125 457
125 533
125 534
126 534
126 535
127 312
127 313
128 396
128 397
129 238
129 239
129 483
129 484
129 552
129 553
130 598
130 599
131 284
131 285
131 445
131 446
131 487
131 488
131 523
131 524
132 273
132 274
133 239
133 240
133 484
133 485
134 223
134 224
134 455
134 456
134 532
134 533
135 242
135 243
135 486
135 487
135 557
135 558
136 297
136 298
136 508
136 509
136 610
136 611
137 384
137 385
138 220
139 266
139 267
139 578
139 579
140 415
140 416
141 303
141 304
142 293
142 294
142 505
142 506
142 606
142 607
143 329
143 330
143 551
143 552
144 411
144 412
145 325
145 326
145 436
145 437
145 481
145 482
145 513
145 514
145 548
145 549
146 244
146 245
146 492
146 493
146 560
146 561
147 245
147 246
147 498
147 499
148 404
148 405
149 570
149 571
150 373
150 374
150 477
150 478
150 590
150 591
151 321
151 322
151 428
151 429
152 354
152 355
153 259
153 260
154 426
154 427
155 267
155 268
156 279
156 280
157 351
157 352
157 432
157 433
157 506
157 507
157 567
157 568
158 594
158 595
159 282
159 283
159 599
159 600
160 165
160 394
160 614
161 377
161 378
162 315
162 316
162 469
162 470
162 541
162 542
163 251
163 252
164 257
164 258
164 571
164 572
165 394
165 510
165 511
165 611
165 612
166 230
166 231
166 470
166 471
166 542
166 543
167 419
167 420
168 290
168 291
169 304
169 305
169 454
169 455
170 414
170 415
171 330
171 331
172 240
172 241
173 317
173 318
173 413
173 414
174 409
174 410
175 270
175 271
175 582
175 583
176 412
176 413
177 331
177 332
178 374
178 375
178 478
178 479
178 591
178 592
179 255
179 256
180 367
180 368
180 472
180 473
180 584
180 585
181 357
181 358
182 536
182 537
183 376
183 377
183 482
183 483
183 595
183 596
184 400
184 401
184 553
184 554
185 363
185 364
185 433
185 463
185 464
186 287
186 288
186 434
186 435
186 495
186 496
187 370
187 371
187 424
187 425
188 280
188 281
189 258
189 259
189 458
189 459
189 575
189 576
190 355
190 356
190 444
190 445
190 521
190 522
191 391
191 392
192 278
192 279
193 574
193 575
194 368
194 369
195 341
195 342
196 316
196 317
197 371
197 372
197 475
197 476
198 375
198 376
198 480
198 481
198 593
198 594
199 292
199 293
199 416
199 417
200 344
200 345
200 499
200 500
200 561
200 562
201 296
201 297
201 609
201 610
202 306
202 307
203 385
203 386
203 493
203 494
203 602
203 603
204 430
204 589
204 590
205 332
205 333
206 401
206 402
207 286
207 287
207 449
207 450
207 490
207 491
207 526
207 527
207 601
207 602
208 289
208 290
209 274
209 275
209 585
209 586
210 260
210 261
210 442
210 443
210 460
210 461
210 519
210 520
211 241
211 242
211 555
211 556
212 417
212 418
213 349
213 350
214 435
214 436
214 512
214 513
215 235
215 236
215 547
215 548
216 387
216 388
216 431
216 432
216 500
216 501
216 603
216 604
217 252
217 253
218 604
218 605
219 220
221 222
222 223
223 224
224 225
225 226
226 227
227 228
228 229
229 230
230 231
231 232
232 233
233 234
234 235
235 236
236 237
237 238
238 239
239 240
240 241
241 242
242 243
243 244
244 245
245 246
246 247
247 248
248 249
249 250
250 251
251 252
252 253
253 254
254 255
255 256
256 257
257 258
258 259
259 260
260 261
261 262
262 263
263 264
264 265
265 266
266 267
267 268
268 269
269 270
270 271
271 272
272 273
273 274
274 275
275 276
276 277
277 278
278 279
279 280
280 281
281 282
282 283
283 284
284 285
285 286
286 287
287 288
288 289
289 290
290 291
291 292
292 293
293 294
294 295
295 296
296 297
297 298
298 299
299 300
300 301
301 302
302 303
303 304
304 305
305 306
306 307
307 308
308 309
309 310
310 311
311 312
312 313
313 314
314 315
315 316
316 317
317 318
318 319
319 320
320 321
321 322
322 323
323 324
324 325
325 326
326 327
327 328
328 329
329 330
330 331
331 332
332 333
333 334
334 335
335 336
336 337
337 338
338 339
339 340
340 341
341 342
342 343
343 344
344 345
345 346
346 347
347 348
348 349
349 350
350 351
351 352
352 353
353 354
354 355
355 356
356 357
357 358
358 359
359 360
360 361
361 362
362 363
363 364
364 365
365 366
366 367
367 368
368 369
369 370
370 371
371 372
372 373
373 374
374 375
375 376
376 377
377 378
378 379
379 380
380 381
381 382
382 383
383 384
384 385
385 386
386 387
387 388
388 389
389 390
390 391
391 392
392 393
393 394
395 396
396 397
397 398
398 399
399 400
400 401
401 402
402 403
403 404
404 405
405 406
406 407
407 408
408 409
409 410
410 411
411 412
412 413
413 414
414 415
415 416
416 417
417 418
418 419
419 420
420 421
421 422
422 423
423 424
424 425
425 426
426 427
427 428
428 429
429 430
431 432
432 433
434 435
435 436
436 437
437 438
438 439
439 440
440 441
441 442
442 443
443 444
444 445
445 446
446 447
447 448
448 449
449 450
450 451
451 452
453 454
454 455
455 456
456 457
457 458
458 459
459 460
460 461
461 462
462 463
463 464
464 465
465 466
466 467
467 468
468 469
469 470
470 471
471 472
472 473
473 474
474 475
475 476
476 477
477 478
478 479
479 480
480 481
481 482
482 483
483 484
484 485
485 486
486 487
487 488
488 489
489 490
490 491
491 492
492 493
493 494
494 495
495 496
496 497
497 498
498 499
499 500
500 501
501 502
502 503
503 504
504 505
505 506
506 507
507 508
508 509
509 510
510 511
512 513
513 514
514 515
515 516
516 517
517 518
518 519
519 520
520 521
521 522
522 523
523 524
524 525
525 526
526 527
527 528
528 529
530 531
531 532
532 533
533 534
534 535
535 536
536 537
537 538
538 539
539 540
540 541
541 542
542 543
543 544
544 545
545 546
546 547
547 548
548 549
549 550
550 551
551 552
552 553
553 554
554 555
555 556
556 557
557 558
558 559
559 560
560 561
561 562
562 563
563 564
564 565
565 566
566 567
567 568
568 569
569 570
570 571
571 572
572 573
573 574
574 575
575 576
576 577
577 578
578 579
579 580
580 581
581 582
582 583
583 584
584 585
585 586
586 587
587 588
588 589
589 590
590 591
591 592
592 593
593 594
594 595
595 596
596 597
597 598
598 599
599 600
600 601
601 602
602 603
603 604
604 605
605 606
606 607
607 608
608 609
609 610
610 611
611 612
612 613
613 614
